benchmarks_vrp/att48_10.vrp
NAME: att48_10
TYPE: CVRP
COMMENT: (Rinaldi,Yarrow/Araque) - Cluster Nr.10
DIMENSION: 3
CAPACITY: 15
EDGE_WEIGHT_TYPE: ATT
NODE_COORD_TYPE: TWOD_COORDS
NODE_COORD_SECTION: 
3 9135 6748
1 6823 4674
2 8389 5804
DEPOT_SECTION: 
1
-1
DEMAND_SECTION: 
3 1
1 0
2 1
EOF
