benchmarks_vrp/att48_10.tour
NAME: att48_10 solution
TYPE: TOUR
TOUR_SECTION:
1 2 3 -1
-1
EOF